NAME : portcgen-27-19
COMMENT : portcgen N=27, seed=19
TYPE : TSP
DIMENSION : 27
EDGE_WEIGHT_TYPE : EUC_2D
NODE_COORD_SECTION
1 -45310 -155448
2 -169694 48573
3 47799 317208
4 -271670 123300
5 -196326 -63354
6 19618 -72199
7 336778 -51471
8 415986 73803
9 5036 -79932
10 165922 120561
11 -381131 170685
12 -172317 49722
13 -30906 -459123
14 -138985 139246
15 -245219 -2949
16 105341 21472
17 -123076 -227523
18 -182893 33210
19 205203 300157
20 -467198 -4459
21 90537 -121425
22 -517210 -189587
23 134349 48134
24 374419 647476
25 -92756 -147861
26 -214368 -72527
27 30481 -161574
